/* Objective function */
max: 20 x1 - 20 x2 + 4 x3 + 7 x4
    +4 x6 + 9 x7 + 4 x8 + 2 x9 + 9 x10
    +4 x11 + 5 x13 + 4 x14 + 2 x15
    +5 x16 + 4 x17 + 5 x18 + 8 x19 + 7 x20
    +8 x21 - 1 x22 - 4 x23 - 1 x24 - 3 x25
    -1 x26 - 2 x27 - 1 x28 - 1 x30 - 2 x31;

/* Variable bounds */

 x5              - x22 + x32 < 100;
-x3  - x6        + x22 - x32 < -100;
 x3  + x7        - x23 + x33 < 500;
-x4              + x23 - x33 < -500;
 x4  + x8        - x24 + x34 < 100;
-x9              + x24 - x34 < -100;
 x6  + x13       - x25 + x35 < 400;
-x7  - x10       + x25 - x35 < -400;
 x10 + x14       - x26 + x36 < 800;
-x8  - x11       + x26 - x36 < -800;
 x12             - x27 + x37 < 90;
-x13 - x16 - x18 + x27 - x37 < -90;
 x16 + x19       - x28 + x38 < 100;
-x14 - x17       + x28 - x38 < -100;
 x18             - x30 + x40 < 500;
-x19 - x21       + x30 - x40 < -500;
 x21             - x31 + x41 < 300;
-x20             + x31 - x41 < -300;

 x1  - x2  + x9  + x11 + x15 < 0;
-x1  + x2  - x5  - x12       < 0;
-x15 + x29 - x39             < 0;
 x17 + x20 - x29 + x39       < 0;
 